13701
1 0 1 0 1 1 1 0 1 1 0 1 0 0 0 0 1 1 0 0 1 0 0 0 0 1 0 0 0 0 
20 11 20 2 20 5 2 9 8 17 9 16 8 20 17 8 17 17 5 11 2 0 5 17 5 8 2 5 5 9 5 25 6 25 20 20 5 9 0 2 0 8 9 8 5 17 0 20 11 8 5 2 17 5 20 20 17 11 0 17 0 5 20 11 11 11 9 0 5 9 20 6 11 17 9 8 9 20 2 9 20 0 20 17 17 17 17 4 20 5 2 9 17 11 17 5 2 2 25 16 8 17 17 25 2 25 17 11 8 8 17 2 2 11 11 25 5 9 5 5 5 8 25 20 16 0 5 9 0 25 0 11 5 25 8 8 4 25 20 0 0 8 20 2 8 25 25 11 2 11 
